NAME : TSP_between_chains.152895.tour
COMMENT : Length = 152895
COMMENT : Found by LKH [Keld Helsgaun] Sat Mar  9 12:26:53 2019
TYPE : TOUR
DIMENSION : 178
TOUR_SECTION
1
106
2
105
3
117
22
137
25
134
23
136
35
138
24
135
4
173
45
141
49
147
48
144
46
142
58
146
61
172
60
145
59
149
71
150
72
157
81
178
80
156
82
176
87
175
88
153
85
152
89
151
84
154
86
155
83
174
79
177
78
160
77
158
76
163
73
162
68
168
69
170
70
169
75
164
74
159
67
161
66
166
65
165
64
167
63
171
62
148
47
140
57
139
56
143
50
91
14
103
33
131
40
108
19
119
39
102
28
101
13
93
51
100
32
94
9
114
53
111
15
132
12
98
30
112
38
113
31
125
37
97
11
124
42
123
16
96
10
95
52
126
41
99
43
122
17
110
54
127
29
109
18
121
8
115
36
92
7
120
44
128
55
107
27
118
21
129
26
133
5
130
34
104
6
90
20
116
-1
EOF
